files/upTests/_functions/setsOfFuncMinSize2/0003.eprime
language ESSENCE' 1.0

find fs_SetExplicit_SetExplicitVarSize_tuple1:
        matrix indexed by [int(1..2), int(1..4)] of bool
find fs_SetExplicit_SetExplicitVarSize_tuple2_Matrix1D:
        matrix indexed by [int(1..2), int(1..4), int(1..2)] of int(-1, 1)
such that
    (sum v__0 : int(1..4) . fs_SetExplicit_SetExplicitVarSize_tuple1[1, v__0] * 1)
    <
    (sum v__0 : int(1..4) . fs_SetExplicit_SetExplicitVarSize_tuple1[2, v__0] * 1)
    \/
    (sum v__0 : int(1..4) . fs_SetExplicit_SetExplicitVarSize_tuple1[1, v__0] * 1)
    =
    (sum v__0 : int(1..4) . fs_SetExplicit_SetExplicitVarSize_tuple1[2, v__0] * 1)
    /\
    (exists v__0 : int(1..4)
         . fs_SetExplicit_SetExplicitVarSize_tuple1[1, v__0]
           /\
           fs_SetExplicit_SetExplicitVarSize_tuple1[2, v__0]
           /\
           flatten(fs_SetExplicit_SetExplicitVarSize_tuple2_Matrix1D[1, v__0, ..])
           <lex
           flatten(fs_SetExplicit_SetExplicitVarSize_tuple2_Matrix1D[2, v__0, ..])),
    forAll v__0 : int(1..2)
        . (forAll v__1 : int(1..3)
               . fs_SetExplicit_SetExplicitVarSize_tuple1[v__0, v__1]
                 /\
                 fs_SetExplicit_SetExplicitVarSize_tuple1[v__0, v__1 + 1]
                 ->
                 flatten(fs_SetExplicit_SetExplicitVarSize_tuple2_Matrix1D[v__0, v__1, ..])
                 <lex
                 flatten(fs_SetExplicit_SetExplicitVarSize_tuple2_Matrix1D[v__0, v__1 + 1, ..]))
          /\
          (forAll v__1 : int(1..3)
               . fs_SetExplicit_SetExplicitVarSize_tuple1[v__0, v__1]
                 <=
                 fs_SetExplicit_SetExplicitVarSize_tuple1[v__0, v__1 + 1]),
    forAll v__0 : int(1..2)
        . (sum v__1 : int(1..4) . fs_SetExplicit_SetExplicitVarSize_tuple1[v__0, v__1])
          >=
          1,
    forAll v__0 : int(1..2)
        . (forAll v__1 : int(1..4)
               . fs_SetExplicit_SetExplicitVarSize_tuple1[v__0, v__1]
                 ->
                 (forAll v__2 : int(1..2)
                      . v__2 = 1
                        ->
                        fs_SetExplicit_SetExplicitVarSize_tuple2_Matrix1D[v__0, v__1, v__2] = -1))
